0.
   1.00000000000000
    12.4680689999999998    0.0000000000000000    0.0000000000000000
     0.0000000000000000   12.3494279999999996    0.0000000000000000
    -2.7833760000000001    0.0000000000000000   11.4316300000000002
   Ga   O
    64    96
Direct
  0.6648878933104484  0.0015827547705292  0.1577064406061877
  0.6634995800446474 -0.0015899572962480  0.6584949298894286
  0.6571611203305460  0.2487932529627644  0.1520731603850058
  0.6571805656107170  0.2440158879049273  0.6533181039825346
  0.6578754839574682  0.4971121517816774  0.1610552414114071
  0.6585638270319795  0.4961064062597206  0.6566153614322775
  0.6621928242279286  0.7492177598122002  0.1516327852102098
  0.6567822957749496  0.7523287893323830  0.6601169123626230
  0.8427515124313117  0.1243315321613629  0.3456583201537516
  0.8429215962341503  0.1200487717576318  0.8422050691510305
  0.8407502721755324  0.3745950176455987  0.3417618142345710
  0.8411320522488804  0.3732335598877669  0.8349268980917152
  0.8374617295445621  0.6229461503571955  0.3425250697557325
  0.8445104430080137  0.6274130814359383  0.8462035829087926
  0.8425215318788654  0.8705603780671811  0.3408197224662304
  0.8431422994916662  0.8798912011879588  0.8429126990914623
  0.5860306910826718  0.1251037606627061  0.3923168523044028
  0.5889262423634987  0.1263665595618596  0.8934536770096710
  0.5934154100980904  0.3742304201049271  0.3993375752195170
  0.5899550830329677  0.3797103957364364  0.8938005762748160
  0.5893131233126764  0.6289118778404864  0.3950339735149757
  0.5919688236722936  0.6232097511693545  0.9017236123688297
  0.5940450725137331  0.8751714258323903  0.4023581096092864
  0.5904179536066640  0.8761932633195506  0.8964985480182998
  0.9090418699701734  0.0037153879744006  0.1032918791168992
  0.9110040846125715  0.0025319955605021  0.6027366959445039
  0.9078318204325392  0.2511333076845834  0.0983080721327968
  0.9086237170753431  0.2572955492867601  0.6032028338133805
  0.9041251161583896  0.5002349997564756  0.1014663285163433
  0.9073163908582510  0.4953116177153092  0.6045301974903040
  0.9141779434355051  0.7475650041504628  0.1078523960579134
  0.9107275579217500  0.7493224200410953  0.5996185134020481
  0.1622547320761917  0.1233458071589566  0.1591190551528923
  0.1537534607311034  0.1276401117715481  0.6538678592025213
  0.1574597714849225  0.3724232621677418  0.1604680152240544
  0.1580878338093821  0.3770897905949273  0.6540203758725744
  0.1592192201958359  0.6220763384213538  0.1594795347683632
  0.1571175135765249  0.6275769730318012  0.6567255877959952
  0.1557576461143562  0.8716990116523279  0.1598825035953984
  0.1518775704003318  0.8747437309976690  0.6577144385092664
  0.3461394524737151 -0.0002052805203679  0.3458394746355655
  0.3378462209354105  0.0005854181081169  0.8446738969635442
  0.3413132182097796  0.2513393475298693  0.3420286974225909
  0.3411714933278736  0.2506193140256354  0.8398198248416143
  0.3422306644449222  0.4994680689613299  0.3431108123265567
  0.3418635385236254  0.5012216054420234  0.8435240268417270
  0.3445253803647891  0.7471416766577166  0.3456394138054910
  0.3408298130654202  0.7534645396922514  0.8379277562555132
  0.0889513137295049 -0.0055220388406181  0.3983418130227204
  0.0927419900180237 -0.0042534041990692  0.9051743854988468
  0.0861465752811061  0.2500765389847324  0.3905939929138701
  0.0857223521100907  0.2466534919064137  0.9006325468883211
  0.0910795004676904  0.5011385999942652  0.3998439348025184
  0.0916496590883472  0.4925175519955877  0.8908800872354756
  0.0947801492047009  0.7511176019724958  0.4031140978088971
  0.0877097342768475  0.7499511312813931  0.8993179758660321
  0.4087467283716225  0.1240986221312742  0.1050485497577009
  0.4083516732846728  0.1267790028828550  0.6098006543553270
  0.4091552071136491  0.3768993284739721  0.1074830247421139
  0.4096616375353524  0.3765589592963500  0.6027825897517703
  0.4053912591978878  0.6262615559011026  0.1037315775401740
  0.4076500174414023  0.6295135539187515  0.5993420843136005
  0.4124319293487134  0.8702106974853451  0.1008086797951379
  0.4078674640089297  0.8770291467402994  0.6011828643001544
  1.0007431141251788  0.1230283137566189  0.1234307758726056
  0.9917334263619111  0.1275791799412957  0.6319134244973105
  0.9898428174957280  0.3700778884371859  0.1200519201829746
  0.9939868252857285  0.3784552948868478  0.6317146202878209
  1.0011488679505138  0.6236839361017418  0.1264395587454462
  0.9949110594433856  0.6224066711741882  0.6280977462591116
  0.9916011433955864  0.8742397964754518  0.1355217195207625
  0.9933999076476739  0.8784656941628465  0.6380791785992173
  0.5090322946820279  0.0002042215584903  0.3747463274455097
  0.5028144435358429  0.0054856849091569  0.8723684960487701
  0.5055266570913457  0.2580358595903817  0.3689222240039771
  0.5081389090446589  0.2429302467685086  0.8666721043284089
  0.5046193927262349  0.4996150846198642  0.3739728026092092
  0.5014684123518318  0.5026497256302547  0.8671800132593521
  0.5043754555092014  0.7547417984420359  0.3774984194695922
  0.5139392711931979  0.7540019001429099  0.8591062363841250
  0.6701561981202089  0.1314173140640704  0.2864099509721613
  0.6778721109375329  0.1275871393909860  0.7805825787833708
  0.6803761919318806  0.3780985937989406  0.2835199962535937
  0.6737877131612777  0.3764143933131150  0.7828305882819684
  0.6764954184540762  0.6292277632231520  0.2773042324708220
  0.6709543830495102  0.6236071535086339  0.7832463540746224
  0.6727206740421328  0.8707090719030719  0.2858068700705938
  0.6693659220380315  0.8741134811470047  0.7818399286052756
  0.8282320052311888  0.0045805821097366  0.2129539900869483
  0.8293592375927087  0.0065775291895538  0.7242821303918463
  0.8330633451470664  0.2501018020923788  0.2216616151507959
  0.8300266222475571  0.2514425794789234  0.7167254809639648
  0.8258759186074568  0.4952608011333272  0.2153530447827282
  0.8301486250050319  0.5013910876300759  0.7234974912674726
  0.8337779394641759  0.7524886111731389  0.2203697586910071
  0.8317555442622374  0.7537238777106917  0.7161553187702058
  0.8396197963955738  0.0067281484194258  0.4514097207298138
  0.8417456313485028  0.0018133560053011  0.9483375721584999
  0.8410417968352752  0.2567321723064050  0.4502671961914698
  0.8349317585257187  0.2486193488302378  0.9418887335403620
  0.8384903694498527  0.5052399246270940  0.4430261051763347
  0.8382715693843011  0.4918279583694399  0.9374756730587389
  0.8266542318257026  0.7508364408270316  0.4419207062828525
  0.8393410370083617  0.7560841206791671  0.9495932588241317
  0.6612734044665183  0.1256222534281906  0.0573772887667541
  0.6590886261781552  0.1246539333218444  0.5515243367192580
  0.6666783594656966  0.3767496273860833  0.0549643188994349
  0.6674317906145092  0.3754969351691441  0.5501468278284311
  0.6675743642960200  0.6242037758288138  0.0546708048782259
  0.6613943905380216  0.6166564071053171  0.5521877386547365
  0.6678590694080285  0.8694565494879248  0.0547823466210299
  0.6630797382809175  0.8786081973024590  0.5623407905239517
  0.4994140496649520  0.0011509511041988  0.1308456862992127
  0.4963937908371976 -0.0001004786944631  0.6292701720440829
  0.4914757691671458  0.2558314730508746  0.1312842990070862
  0.4919164504576054  0.2537792445659423  0.6239305071976540
  0.4987416500344017  0.5039534882506184  0.1213273342401459
  0.4868734828300330  0.5046832623291994  0.6237134348278994
  0.4967987196872699  0.7467397839197761  0.1203840157025272
  0.4901363537544425  0.7496868103471124  0.6263471029301861
  0.0090393779465955  0.1250417148821546  0.3670481529288697
  0.0019750343087854  0.1182715970179210  0.8795514174242558
  0.0089844160465102  0.3780500933684985  0.3733990257697191
  0.0030998007676979  0.3746559143431554  0.8673147512684325
  0.0028421186786578  0.6238344614180890  0.3652430355975403
  0.0033030298529717  0.6194368386492944  0.8659993105312180
 -0.0004643690747434  0.8823697199089268  0.3724475507994139
 -0.0005159945121606  0.8752897981689095  0.8733640182031934
  0.1714171347396218  0.0047623625945166  0.2847321080323242
  0.1762506728640269  0.0083966974448274  0.7846263492617886
  0.1754979752679167  0.2539317636454464  0.2797789252580865
  0.1704469086034354  0.2519413067133490  0.7811027606260795
  0.1776579954178812  0.4926623898793728  0.2834213525486643
  0.1743082414863617  0.5022651275570328  0.7773393392781903
  0.1776965531172123  0.7441443710005397  0.2850974364330577
  0.1760519034668661  0.7521860608425349  0.7840522716462307
  0.3293054650819272  0.1217635015683083  0.2184818058327836
  0.3307247755456895  0.1259181636951131  0.7243046284815663
  0.3274401112156682  0.3707166122414576  0.2187777830287759
  0.3175011569233187  0.3759316790639159  0.7174237645349647
  0.3281258772798640  0.6211487388623600  0.2116587317500126
  0.3177629977439935  0.6309566330057510  0.7066605556090017
  0.3334114382470283  0.8675689251017341  0.2166688173039920
  0.3143786110764434  0.8739787524431992  0.7113007831541449
  0.3480587479895187  0.1284937764830294  0.4453630518760061
  0.3434096259788203  0.1300166743503816  0.9512110578769871
  0.3384153945060236  0.3668005963167315  0.4422208824376559
  0.3410161696567718  0.3783012988172518  0.9406457160182533
  0.3326920943069077  0.6277096412377012  0.4474345561214269
  0.3352386241792640  0.6270833545860218  0.9439864123579442
  0.3390133038396670  0.8784355795473340  0.4458570364322195
  0.3378411054052961  0.8703621029564814  0.9418672994319585
  0.1672943311653977 -0.0074482825970718  0.0593086742863673
  0.1579465012695308  0.0025554386209166  0.5592747155690895
  0.1629035797652397  0.2473989038932888  0.0564634903518515
  0.1603433501545493  0.2510084491423676  0.5515945555153390
  0.1676061653736847  0.4968855151014533  0.0545426392930554
  0.1635527921222489  0.4957361397831617  0.5572787379198616
  0.1634970469482285  0.7516325388409804  0.0539514969880902
  0.1520429759399744  0.7541670106626600  0.5583142811659841
