600.
   1.00000000000000
    12.4680689999999998    0.0000000000000000    0.0000000000000000
     0.0000000000000000   12.3494279999999996    0.0000000000000000
    -2.7833760000000001    0.0000000000000000   11.4316300000000002
   Ga   O
    64    96
Direct
  0.6722888893818696  0.0031050287945026  0.1580144660493799
  0.6678759569044159 -0.0025152715324528  0.6602629946117141
  0.6556398293044197  0.2479052348488003  0.1442900392540390
  0.6548195825468587  0.2370949695047855  0.6469414561557790
  0.6561426603993522  0.4936057302626402  0.1652636688166827
  0.6571724420091229  0.4923302432620227  0.6558969475016947
  0.6678787961573891  0.7477282871701177  0.1442839716550108
  0.6549548969066805  0.7528829807283427  0.6660685848216817
  0.8442129320563780  0.1249579462439397  0.3486577111647038
  0.8450115612220398  0.1139711015975808  0.8413648844091056
  0.8410573800801970  0.3748711683103579  0.3377632216221578
  0.8398698078294082  0.3699344975428751  0.8227111546549580
  0.8336470789364812  0.6210363054560381  0.3421382277879034
  0.8483867520160870  0.6298700986843112  0.8505931569499248
  0.8431671062800816  0.8663204343204386  0.3388186949476421
  0.8455301363666086  0.8834836821961880  0.8446132607656101
  0.5810780528399427  0.1264944624027991  0.3855166824654367
  0.5873186133599846  0.1287824959798148  0.8876869017285237
  0.5988217747084883  0.3751923134833081  0.4003099453633315
  0.5892904732010100  0.3853125685432662  0.8883830130277981
  0.5900462331780807  0.6331029943527352  0.3930179492483419
  0.5947130474087838  0.6233252804782796  0.9058678379839191
  0.6025068856282056  0.8757214686627105  0.4092453235633877
  0.5903196233842803  0.8796050454391143  0.8956042407614324
  0.9101558499461444  0.0071082416416676  0.1050864047637159
  0.9111488782707589  0.0082359954281297  0.6035423561118597
  0.9046559060515702  0.2503073928922996  0.0905177784258575
  0.9066134386983477  0.2674593726070885  0.6028479386916844
  0.8961120789751987  0.4981217480591831  0.0968062856478681
  0.9021609165205652  0.4935109132963304  0.6049689052653971
  0.9220849233206445  0.7441152864443681  0.1146596432113928
  0.9092474046300738  0.7492255701608546  0.5964136029201371
  0.1678923576931587  0.1192238252258581  0.1635205918894284
  0.1461117382959725  0.1339208344131118  0.6517759802791346
  0.1550550727857319  0.3676667785386267  0.1633811038739870
  0.1572734364055148  0.3802494708319387  0.6492308474086814
  0.1603845406536890  0.6145242296207751  0.1615321502734520
  0.1534386979158685  0.6313128594122519  0.6574503886349384
  0.1551435536736259  0.8651057954952391  0.1678144148780369
  0.1415302990570370  0.8772865597613689  0.6628041542384620
  0.3532110005968116 -0.0009839168941151  0.3506416229606405
  0.3323956244571249  0.0029723873721255  0.8483499110706010
  0.3430764298361896  0.2524247528600609  0.3424155622935542
  0.3399847441541691  0.2528185258574764  0.8368840545020052
  0.3443585447906858  0.4976384223528413  0.3433742247321243
  0.3416670484826914  0.5045599822663862  0.8432781270062019
  0.3491198330477159  0.7452862384389140  0.3481470161431814
  0.3405174788008850  0.7583981476120104  0.8297255992334328
  0.0883667056880064 -0.0101151524650393  0.4009753994870455
  0.0977695129347833 -0.0114526945438681  0.9180960187140603
  0.0810873133803504  0.2504538120352822  0.3818035141604113
  0.0812443620120721  0.2391635068890302  0.9047235831993814
  0.0922017276514411  0.5038675631744244  0.4015871160024654
  0.0943546848837401  0.4816795796216530  0.8845664522054494
  0.0993467753897241  0.7519004035482076  0.4092326454173992
  0.0848305646246958  0.7458432187735873  0.9033438451155796
  0.4099770744284817  0.1227214465082098  0.1087237238531035
  0.4069583866528519  0.1296611364033274  0.6189939703721744
  0.4074388644762815  0.3793904881060307  0.1110464623919988
  0.4081407798266279  0.3799837370129259  0.6024777552384458
  0.3995785265069374  0.6275289996789777  0.1017053068835380
  0.4039848779720715  0.6359169287016319  0.5953069658912622
  0.4174106214267782  0.8651235152208050  0.0998708902347504
  0.4042589944862518  0.8816874318007142  0.6013543234742430
  1.0044623866202507  0.1233808688137369  0.1180956168295636
  0.9866239229618273  0.1346702481000448  0.6361594677614660
  0.9854119574052022  0.3678035464338240  0.1115076307613903
  0.9940274765427268  0.3837451833745726  0.6339127335770188
  1.0035187263466561  0.6174759833103859  0.1234794544858229
  0.9915478612129839  0.6213599204100367  0.6251743991835813
  0.9915099943672090  0.8749497680804796  0.1464052085872466
  0.9876221063708334  0.8818166891734253  0.6481342458079732
  0.5139680637201667 -0.0020824037540570  0.3773806707029465
  0.5006497429109485  0.0086162645188859  0.8727591857700675
  0.5074622420818756  0.2633546680834131  0.3654207925686966
  0.5097656547618505  0.2441974565184790  0.8597459671188312
  0.5069766898464233  0.5007130474233848  0.3742546218498206
  0.4993929082948186  0.5067495639993524  0.8605774776551425
  0.5070360698839319  0.7586501449259551  0.3825150127227298
  0.5184954340916629  0.7563318053163244  0.8469808052541705
  0.6703457543253030  0.1364125666762206  0.2864681188548849
  0.6796030767373228  0.1282917252716263  0.7774754766269201
  0.6837316439307458  0.3808365347520464  0.2822920939546404
  0.6716931732241748  0.3775850039472674  0.7779381635397682
  0.6773500510172240  0.6315961588961924  0.2738612135889093
  0.6714394912250981  0.6239801012369426  0.7845366190826613
  0.6753245959667892  0.8683929356411022  0.2873799885316287
  0.6698819416987372  0.8753302984978926  0.7829724823196721
  0.8289340324924767  0.0079210140474086  0.2119583122868483
  0.8319523925474831  0.0120743088622409  0.7287968696057822
  0.8361454504880511  0.2495169733939310  0.2208513559660748
  0.8299720745505426  0.2525611908281608  0.7141841570035919
  0.8247615264755730  0.4924736153982404  0.2135164613072113
  0.8304646052910867  0.5014419434225945  0.7247638321200200
  0.8391407967771657  0.7528093681745988  0.2228048812980576
  0.8344189630454466  0.7564732394152448  0.7176742762349533
  0.8419434910133279  0.0094913174796974  0.4529268646506539
  0.8437361319272605  0.0015595384960608  0.9513857905279780
  0.8449882588325902  0.2622142869443009  0.4502394360859108
  0.8321617486644828  0.2457654980398338  0.9349803992324666
  0.8392534530267283  0.5070165876061670  0.4409018466811465
  0.8388642047598480  0.4860539463182420  0.9307772817736274
  0.8180820215178330  0.7508177699800388  0.4408060239571820
  0.8456727302978005  0.7586596164071302  0.9548807658069030
  0.6588676243294556  0.1259891413406186  0.0545896796401494
  0.6554287880444147  0.1226836310332027  0.5466243758694035
  0.6673564996750185  0.3781221600927641  0.0515179883502405
  0.6729210337096880  0.3741256332176544  0.5485749395304859
  0.6748698445911191  0.6211504135969890  0.0550625805419301
  0.6591509892993244  0.6137507603167959  0.5523731331301817
  0.6724002924351014  0.8678281216172670  0.0537896952378053
  0.6659690456826071  0.8797061712471596  0.5694370950234650
  0.5034075086657597 -0.0002277055059772  0.1332711867795137
  0.4966067118618608  0.0018070455471456  0.6323850054372767
  0.4897181106588398  0.2586877459651918  0.1334862013024251
  0.4900780539804438  0.2575621010519538  0.6205071843460451
  0.4982498198403781  0.5070478916516336  0.1139210106356349
  0.4811501011524143  0.5095065144372358  0.6184720218834933
  0.5004881009676756  0.7421923568849359  0.1125436537872938
  0.4862963085262589  0.7536259319622507  0.6227822123468486
  0.0105742937159181  0.1231398179080196  0.3612314710840182
  0.0024911490592950  0.1089085492883962  0.8894797737464359
  0.0106467204889613  0.3813757757242405  0.3715914456884121
  0.0021109746221411  0.3684880730192195  0.8618842672471257
  0.0023830226375548  0.6256682051123893  0.3597833496725661
  0.0054209711299674  0.6116281660738421  0.8616901008507136
 -0.0023014046575546  0.8822275476593099  0.3767293290316130
 -0.0009431296370864  0.8730726866918780  0.8803096911655718
  0.1738126022533530  0.0055134276005562  0.2904088527082569
  0.1754644032465905  0.0144475544795606  0.7908639982229507
  0.1772257267482770  0.2548166650701485  0.2782368392343716
  0.1663857216338440  0.2535999379861757  0.7810859012136772
  0.1800228061837877  0.4870162179345148  0.2841864081069327
  0.1753108627993935  0.5043378194317771  0.7727948811995023
  0.1807467673844969  0.7395584063824290  0.2897310906832326
  0.1735605292032392  0.7553585022116097  0.7870067094950428
  0.3331962615032374  0.1178724154255252  0.2224944186698710
  0.3291968339027231  0.1287072513548291  0.7289179277481757
  0.3280760338857786  0.3674850529975093  0.2203265276242129
  0.3123186556027878  0.3772599230565428  0.7146477552483492
  0.3289902178245971  0.6169245856938845  0.2101734259120886
  0.3109266492284409  0.6381280957123165  0.6987276268739838
  0.3393241748581461  0.8596235376036243  0.2182883142782549
  0.3048585480371037  0.8760226760050621  0.7068042787782713
  0.3603663744883601  0.1304384231334399  0.4481824489186209
  0.3481802492445824  0.1344149419185719  0.9553444494667667
  0.3398642856217302  0.3641387902331630  0.4409074358519328
  0.3465866278147134  0.3816904864549291  0.9386745835009188
  0.3278166927335489  0.6290695347495046  0.4452691225905919
  0.3342934965423187  0.6315121088152376  0.9397225375533124
  0.3390357162626419  0.8800577865880784  0.4463194685806261
  0.3407780004235036  0.8685186323009085  0.9405853036195782
  0.1749444242934907 -0.0159845746007707  0.0686059807727733
  0.1488247644463361  0.0056017951270658  0.5645560882899723
  0.1642927721592618  0.2425753284258881  0.0585495310832600
  0.1543632770208175  0.2530168098917051  0.5462869774808177
  0.1710294640079732  0.4900328588886268  0.0522106908592710
  0.1637855405491159  0.4975828498504776  0.5572779787361881
  0.1619593836335379  0.7484089642786804  0.0574203556392414
  0.1407837305943292  0.7594599209635610  0.5634206425316605
