300.
   1.00000000000000
    12.4680689999999998    0.0000000000000000    0.0000000000000000
     0.0000000000000000   12.3494279999999996    0.0000000000000000
    -2.7833760000000001    0.0000000000000000   11.4316300000000002
   Ga   O
    64    96
Direct
  0.6685166364858522  0.0022982300313445  0.1577517689753248
  0.6653880112026330 -0.0019274030553093  0.6593485888302500
  0.6564344583167351  0.2484267040348735  0.1478589187318825
  0.6558689674789604  0.2406415977902771  0.6498240809429648
  0.6568216170979138  0.4953805102039286  0.1629985534562527
  0.6576343266335126  0.4944074545619048  0.6561929456853679
  0.6652152229604287  0.7483995947256753  0.1478580912613796
  0.6559124985873926  0.7523031669136476  0.6634445133261818
  0.8434289982168188  0.1248135347108104  0.3470384426975046
  0.8439948077965768  0.1169488358276172  0.8417735541576313
  0.8410606788139056  0.3748652890400596  0.3392747585367181
  0.8403465974044783  0.3714187655564923  0.8284366805971067
  0.8357456725736282  0.6220947833539937  0.3423477724888650
  0.8464862949844405  0.6285078218511777  0.8484445943983767
  0.8428045828328714  0.8686291520089597  0.3399409456315903
  0.8444294222896616  0.8812445233962695  0.8440928229274753
  0.5835983514835194  0.1259115110841368  0.3887817676732553
  0.5879489017536532  0.1277408114449526  0.8903579826036739
  0.5962764735300607  0.3749832899224066  0.3995902621201932
  0.5894986935619048  0.3825469749082662  0.8908587208782871
  0.5899265113288418  0.6309275700948541  0.3942077712099436
  0.5933480507703873  0.6236489103513351  0.9035775672742755
  0.5988340465293442  0.8754524577116181  0.4058728681287674
  0.5902173482324422  0.8781713145437788  0.8960431798029813
  0.9099700786452432  0.0051724513033790  0.1043719909444383
  0.9108810191222546  0.0057902159832808  0.6031797203463056
  0.9061938464649845  0.2504102085880075  0.0940116388610368
  0.9075414603239977  0.2626255484768856  0.6027780340735863
  0.9000060817778693  0.4987742088970663  0.0986621122313447
  0.9044743113333753  0.4950447549713010  0.6044064008123957
  0.9186310964010407  0.7457444945173812  0.1113599923573849
  0.9095672754137752  0.7494621749261446  0.5981663894413212
  0.1652504384896671  0.1209242233235636  0.1616553082251551
  0.1496474878655813  0.1312592916353807  0.6531269255303387
  0.1561048122899685  0.3697442101794433  0.1617004050279989
  0.1576346455764093  0.3788373153175145  0.6514155171158041
  0.1598288201798897  0.6176306219551967  0.1603949623920356
  0.1549445072296074  0.6296072508971543  0.6572486902924778
  0.1559484437373685  0.8679485787637085  0.1646195764299647
  0.1463298975258132  0.8764665579003973  0.6609484443962031
  0.3498997543292784 -0.0007036481562784  0.3484948953392217
  0.3349712155172656  0.0020383948431587  0.8467740169518085
  0.3425131675993880  0.2517834670607242  0.3425104122906137
  0.3404379050702062  0.2519591391598262  0.8385165205556260
  0.3435087357772563  0.4984231671389039  0.3432095940816677
  0.3417009650755500  0.5031888035181344  0.8432413112776405
  0.3469836712691330  0.7464631198981327  0.3467735441284831
  0.3407116395347724  0.7560999772753162  0.8335435785322971
  0.0887251462011033 -0.0075402107606779  0.3998873661961605
  0.0954988599606978 -0.0082242345815567  0.9122383394753558
  0.0834965229864270  0.2503020342175606  0.3861294449045705
  0.0836332418539567  0.2423426328585038  0.9027071737617940
  0.0915381406438029  0.5027229271251601  0.4004503232999557
  0.0930397583895915  0.4867498002905667  0.8879744918066381
  0.0969143967541857  0.7514119436819359  0.4061078075092646
  0.0862889423609609  0.7472165651767140  0.9016780621087367
  0.4097942349357682  0.1233373742795659  0.1069777837791030
  0.4077566238863180  0.1283596106657809  0.6144745829233518
  0.4082339559834378  0.3780806484258926  0.1089133130066549
  0.4088430239816150  0.3785127117236568  0.6025677322039328
  0.4024872723731331  0.6268725484134288  0.1022372437429667
  0.4057523684131720  0.6328693626640239  0.5973162635391887
  0.4152473769875754  0.8677622806801202  0.1006096231672149
  0.4059209319629627  0.8796986982039396  0.6015803245666524
  1.0024700064247061  0.1233598601209545  0.1209369959246523
  0.9891172981362577  0.1316114997178602  0.6339845478891037
  0.9878767949818263  0.3690446992760459  0.1159358197708833
  0.9941404132435682  0.3813957019587524  0.6324120031766873
  1.0019726538280884  0.6199962588675070  0.1249687507237206
  0.9929330444205587  0.6222260580228128  0.6263409714344815
  0.9921912023934866  0.8746637619022913  0.1412166024645037
  0.9900862844138357  0.8801869630115603  0.6428594542743195
  0.5114872899867279 -0.0011784234216153  0.3759421778509540
  0.5015376642491454  0.0069060034015120  0.8724403379733778
  0.5065316967299724  0.2603842814301773  0.3671848660422827
  0.5084707670961744  0.2443942162603106  0.8631114814693671
  0.5060295760734019  0.5002757104402865  0.3737829763120525
  0.5005496267926448  0.5049022617331783  0.8637311892346989
  0.5060356193662769  0.7565911276693921  0.3796533654968537
  0.5155519747884815  0.7550882871041100  0.8537067312707599
  0.6705965476439705  0.1335200551137850  0.2858478217276890
  0.6782963257417324  0.1276330618632865  0.7787961505711382
  0.6814770499315149  0.3792816077526813  0.2823732133048113
  0.6724436044240341  0.3769311104238881  0.7797821239704786
  0.6767193959971889  0.6299928380828177  0.2758193825986858
  0.6715623139621364  0.6240875664398100  0.7839961265542554
  0.6743955487506181  0.8698803960472972  0.2862625955668195
  0.6701922314879308  0.8749624035384780  0.7827212088806179
  0.8286196101921637  0.0059192665961894  0.2128356224736138
  0.8305097033846106  0.0090363123887438  0.7262395460877207
  0.8339709456158602  0.2497942786809258  0.2203737985798104
  0.8295057992756611  0.2518626944137887  0.7151803545016706
  0.8252617964893801  0.4941663226729699  0.2144854364469358
  0.8297775866659588  0.5012031279885579  0.7234665950962674
  0.8360681721272324  0.7522802041974831  0.2213884246061738
  0.8327763557697964  0.7548017143474598  0.7174075313817182
  0.8406951124636016  0.0075914076564085  0.4517597533261281
  0.8422740561141644  0.0013596222598953  0.9499240340096536
  0.8428238656134505  0.2592133305290413  0.4495893478170634
  0.8334363189533964  0.2470459256982610  0.9380782312577228
  0.8385248377612755  0.5055933318624201  0.4419110693057942
  0.8382103755064567  0.4892250341047823  0.9341640273845498
  0.8227695842065026  0.7506733585855925  0.4415979112448561
  0.8429829290896887  0.7567460044258174  0.9524074507246261
  0.6601531789357481  0.1257612156384050  0.0552484722026931
  0.6575264849267817  0.1234863363453023  0.5488503042698462
  0.6665926450621472  0.3774186697473679  0.0527871734885041
  0.6701083039094894  0.3746430590507098  0.5494795561747586
  0.6714192109942529  0.6224675115114315  0.0547893227245022
  0.6603283933958777  0.6159862068568168  0.5525935471608507
  0.6699873031166621  0.8691695301325940  0.0540927188612007
  0.6650782515822090  0.8788019272491416  0.5657546498362525
  0.5014588658366612  0.0002631684359439  0.1320021658997469
  0.4964784726258624  0.0011036439114579  0.6311080665610179
  0.4909466858550098  0.2568819403176674  0.1320826810856146
  0.4912272690857497  0.2556608979122486  0.6224210661500499
  0.4980534189279308  0.5053130512634995  0.1177985696865094
  0.4845426106997184  0.5071517537059823  0.6210838653768728
  0.4989398789965346  0.7443924012471549  0.1167566532625268
  0.4884766980223810  0.7521229700305559  0.6244717472362463
  0.0093330828701291  0.1239718357110844  0.3641645962598317
  0.0025005359024310  0.1132637276096488  0.8844971896724907
  0.0094175938495093  0.3797184864561827  0.3719245077967960
  0.0025858996505896  0.3708877366793953  0.8645898302192531
  0.0026026431596714  0.6249905624403644  0.3628689970326657
  0.0045938428706345  0.6151388711093682  0.8641691767220203
 -0.0010252654677258  0.8816286265221240  0.3750055211920617
 -0.0002014658096653  0.8737423895921895  0.8775823131001280
  0.1731744405030561  0.0045506247090197  0.2880408586816007
  0.1753781540031070  0.0108338930569856  0.7880797727732769
  0.1763512521900710  0.2538336988072375  0.2792135006525396
  0.1684405181930795  0.2527342917333557  0.7811885187607156
  0.1785043602335853  0.4902148772350316  0.2835925868112790
  0.1748236383423453  0.5031651621051496  0.7751816194879627
  0.1790198392564078  0.7421327113895877  0.2875150473783513
  0.1742370790969722  0.7537990872363738  0.7855733207188855
  0.3314573710625225  0.1198594945739380  0.2208782441989806
  0.3290909938550743  0.1275630911969391  0.7261662263870242
  0.3276851935814284  0.3692900329950986  0.2196071061036899
  0.3154116258423524  0.3766985421075304  0.7158623548639902
  0.3285290459567254  0.6190916858712998  0.2113809475973576
  0.3148274616966263  0.6345302291441888  0.7033765080048996
  0.3362358769799081  0.8637223619128297  0.2177917320018377
  0.3101619881661614  0.8754671024202585  0.7096889072576834
  0.3538858989119121  0.1292371990282963  0.4471434196310639
  0.3453369496960140  0.1320920760997841  0.9531190568714167
  0.3389721456180018  0.3662495219378540  0.4417824816011131
  0.3435971303229021  0.3800051917742696  0.9398866379483148
  0.3304376838396300  0.6281834257270295  0.4460323557356696
  0.3347611476998339  0.6295358094883267  0.9415966101357257
  0.3387086127386268  0.8789624742936051  0.4462944721852656
  0.3394118262568189  0.8698628504510468  0.9416568777721926
  0.1715317297807528 -0.0117267142257623  0.0645025350492444
  0.1530443819188013  0.0042070647259764  0.5620871294057004
  0.1639131929174367  0.2446705846025781  0.0575263845508638
  0.1570419097571407  0.2522399151599539  0.5487546095577303
  0.1691903636715638  0.4929563023731824  0.0531778237639479
  0.1637029349902036  0.4975077674265087  0.5569582487387664
  0.1624948855516237  0.7492384345177603  0.0561988899386594
  0.1468927054642302  0.7569167130571388  0.5610970103393190
