900.
   1.00000000000000
    12.4680689999999998    0.0000000000000000    0.0000000000000000
     0.0000000000000000   12.3494279999999996    0.0000000000000000
    -2.7833760000000001    0.0000000000000000   11.4316300000000002
   Ga   O
    64    96
Direct
  0.6753037337251679  0.0037661868840166  0.1582272847648583
  0.6699025832841893 -0.0030260100003293  0.6609827320169227
  0.6550147124288571  0.2474682165935709  0.1414833112638768
  0.6540078782903483  0.2342730938958352  0.6446973048968784
  0.6556227999738494  0.4922017153546854  0.1670663546105751
  0.6568533200047405  0.4906607528832610  0.6556561993049969
  0.6699638189494682  0.7472136926186980  0.1414717380553730
  0.6541888919259868  0.7534372830861483  0.6680949104132160
  0.8448173568421464  0.1250075962342532  0.3499230441208884
  0.8457927205483038  0.1115794075171143  0.8410250444446458
  0.8409989497044222  0.3748569544204985  0.3365986473418131
  0.8395009446095747  0.3687910585860114  0.8182246462371462
  0.8319433092931566  0.6201796221409545  0.3419596152278003
  0.8498890455145636  0.6309438453821620  0.8522787426578604
  0.8434903640280815  0.8644518145298978  0.3379152917108727
  0.8464012171478016  0.8853111223733647  0.8449950977378773
  0.5791142626398450  0.1268903797906444  0.3829289582498080
  0.5867956467130513  0.1296055499867707  0.8855739620863754
  0.6008100337738852  0.3752900502173530  0.4009185186276284
  0.5891439944895871  0.3875368824509616  0.8864240605282052
  0.5901078318082673  0.6348554518252654  0.3920643242336902
  0.5957837637677101  0.6230069601436350  0.9077157831335654
  0.6053388081287343  0.8759084602413387  0.4118885297347338
  0.5904118537816977  0.8806796519711848  0.8952410155703696
  0.9102273980648975  0.0086571927049631  0.1056304480379335
  0.9113693892193104  0.0101029328046655  0.6037877205389361
  0.9034471099177324  0.2502989771646999  0.0878080228747848
  0.9058616252480247  0.2712866774852751  0.6029003319311230
  0.8930331722423092  0.4976625786322827  0.0954356077453338
  0.9003729710463924  0.4921791296360121  0.6054496678466581
  0.9247554979802888  0.7428235281128025  0.1172831266576141
  0.9090313445277577  0.7490466920262402  0.5950295304291424
  0.1699723592421672  0.1179232093827444  0.1649688598151615
  0.1433618628785596  0.1359462859953798  0.6506595387395695
  0.1542709625622142  0.3660406336934913  0.1647498275970598
  0.1569996223086572  0.3813845684157604  0.6475137935458870
  0.1608175871880712  0.6121548803515325  0.1624803296603272
  0.1522989201423524  0.6326783692708206  0.6575748735958190
  0.1544512594728111  0.8629016565091936  0.1702493315270308
  0.1377781671508059  0.8778550115460005  0.6641612154679467
  0.3557997772615291 -0.0011988497373636  0.3523303886845515
  0.3303737400193960  0.0036645826758068  0.8495596297511885
  0.3434613589648942  0.2529467988958063  0.3423098438904715
  0.3396353940280801  0.2534633852636060  0.8355648318492112
  0.3450005247126887  0.4970711855224705  0.3434816641285221
  0.3416671749748917  0.5055988261821828  0.8433264538882183
  0.3507968668466908  0.7442959816733108  0.3492623414487324
  0.3403278992989434  0.7602274733615859  0.8267669617259092
  0.0880610656563504 -0.0122456787675574  0.4018063508137533
  0.0995300629264591 -0.0139844838612480  0.9226818610951258
  0.0791744338399999  0.2505647275046216  0.3783871487567145
  0.0793479367786845  0.2367251324873480  0.9063307676933754
  0.0927258666261597  0.5047390488953160  0.4025100591601630
  0.0953684060042401  0.4776638710410206  0.8818080559390394
  0.1013520281214990  0.7523090560854121  0.4117802194460756
  0.0836991728514683  0.7448536286211066  0.9046541510100526
  0.4100230717047014  0.1222314685391878  0.1100805506142585
  0.4062891295200705  0.1306857659545189  0.6225758066214064
  0.4068264671771747  0.3803946670628139  0.1128167810731536
  0.4076416171946144  0.3811105861956868  0.6024236789604985
  0.3972703883372735  0.6280667775366668  0.1013993513452977
  0.4026099218052622  0.6383201796674705  0.5937080654398648
  0.4190616305693500  0.8629931920212884  0.0992655494962324
  0.4029581232507889  0.8832009068156931  0.6011210968633711
  1.0061808609428371  0.1232162420669725  0.1158397594900756
  0.9846106944576527  0.1369423001134641  0.6378805658416598
  0.9832793524037255  0.3665439319812427  0.1079007684325921
  0.9937683980743289  0.3856289062000271  0.6351263026660543
  1.0049599548382260  0.6156486750805060  0.1223539242334094
  0.9905144380402926  0.6206201009146048  0.6243696326820332
  0.9907507245936492  0.8750560301417087  0.1504420533789046
  0.9857359283614973  0.8831999422528661  0.6524020784354976
  0.5160391474172948 -0.0026758193204906  0.3785844453375988
  0.4999359610296242  0.0102208837613183  0.8730122043874164
  0.5082134663425737  0.2659801046209342  0.3640387515157757
  0.5109214024530679  0.2435076455678195  0.8571084879676850
  0.5076706784074664  0.5009776726018533  0.3747343298260394
  0.4984244206385355  0.5082142043287022  0.8581150926056529
  0.5077595437799867  0.7604071979638494  0.3848530550741908
  0.5212410235805367  0.7575078188278639  0.8415877584154396
  0.6698922165941930  0.1388189511115715  0.2871889142961519
  0.6807804462396119  0.1289245192559829  0.7764454493200834
  0.6857433840649090  0.3820968334829506  0.2822915388734205
  0.6711835359438917  0.3781278360643811  0.7767417588285757
  0.6780041350665205  0.6329690932795449  0.2721750005334237
  0.6711446882940514  0.6238203001136711  0.7849937931085746
  0.6758815508839665  0.8670735919561908  0.2883993544924972
  0.6693394324064601  0.8755027302117495  0.7831456732755705
  0.8293216702127517  0.0095931497267086  0.2109814629401992
  0.8331407775731046  0.0146052163105021  0.7310178207296514
  0.8380961375671724  0.2493474148614137  0.2214013984597816
  0.8305579235171731  0.2531279606608657  0.7133972811397766
  0.8243942557252601  0.4909697495520966  0.2126499653290368
  0.8311955619019117  0.5017030186140392  0.7260422210134416
  0.8417727596500886  0.7533382818136563  0.2239225980204884
  0.8359486226113350  0.7578519815348707  0.7177575852183175
  0.8430183403115636  0.0112973999512612  0.4541764698214679
  0.8451174999158546  0.0018129341127027  0.9526048192279093
  0.8467727658450968  0.2647511315722025  0.4510079594780396
  0.8311784928003629  0.2447916543636114  0.9326010979637787
  0.8398504892417318  0.5083666315363097  0.4400004729994430
  0.8393967324033726  0.4832652921159543  0.9278482630569572
  0.8141962893220315  0.7509757855429652  0.4399865150584560
  0.8477275252762758  0.7603728583622611  0.9568777015427973
  0.6578474838228938  0.1261891436091497  0.0543496738899724
  0.6537059816985019  0.1221181160054716  0.5448866831794685
  0.6680886206925034  0.3787417567335667  0.0506789702706060
  0.6750813492470344  0.3738318060401385  0.5475967352984414
  0.6774824629115767  0.6202103195247143  0.0552375969234820
  0.6582138969730110  0.6116208205195754  0.5520563368622957
  0.6743382773330562  0.8665045099244032  0.0536022438602382
  0.6665786210249607  0.8805819532019061  0.5725290944937361
  0.5049936327998613 -0.0004572119671444  0.1343153378607337
  0.4967229425324060  0.0022819028803233  0.6333255261409053
  0.4885465149168958  0.2603527534678131  0.1346128385171037
  0.4889816381675773  0.2591441405362649  0.6188874414448641
  0.4985811713859100  0.5085074892780586  0.1107934242002688
  0.4781769480733344  0.5114696280992521  0.6163578957994538
  0.5015950144394389  0.7404677345348095  0.1091363950890264
  0.4843751066389410  0.7546213516850038  0.6215107575824755
  0.0117859512990153  0.1226019620486879  0.3589235931049077
  0.0023267425921807  0.1054282968338964  0.8934140797208633
  0.0118599217653956  0.3827328894004132  0.3714610415641023
  0.0017197761254600  0.3668181746342069  0.8597427732686438
  0.0021289170317187  0.6260283821030806  0.3572527253335402
  0.0059073074500344  0.6087891899581732  0.8596115216841416
 -0.0034997672903582  0.8832322329692491  0.3779622117465914
 -0.0017792858683837  0.8725978257236906  0.8823258954436889
  0.1740825650877914  0.0065077229462595  0.2922377450772869
  0.1757021415450479  0.0174818302531981  0.7929335290170674
  0.1779632167405283  0.2557471557060215  0.2774143644959717
  0.1647640032558016  0.2543339786071545  0.7809310360240129
  0.1813341793243688  0.4843199682246190  0.2846548728638774
  0.1756758639878305  0.5052886301770041  0.7708244740751266
  0.1822163250891197  0.7373851973622533  0.2914483176627136
  0.1732821504007180  0.7565625147161641  0.7881176375968409
  0.3346292925285470  0.1162946272816784  0.2236434972110935
  0.3295743052432225  0.1295621110487186  0.7312397451445504
  0.3284238979841865  0.3659419433912613  0.2208770275138464
  0.3095594186589637  0.3777290179103313  0.7138044166761438
  0.3294533051057947  0.6151798406600604  0.2088630881018332
  0.3076772109151628  0.6409983532045506  0.6947745225490886
  0.3419664300011281  0.8563091563711911  0.2185455999870162
  0.3003958509671805  0.8763430796842763  0.7044270279457963
  0.3655618441991423  0.1315104048132029  0.4488840046114049
  0.3505876792411214  0.1363696201353738  0.9572973483215470
  0.3405925424460368  0.3621010211177919  0.4400630091317455
  0.3488876313989376  0.3830930248259308  0.9374618953490583
  0.3258102555489627  0.6298741453737838  0.4449141185229409
  0.3338614704120597  0.6330081492037490  0.9383432232593214
  0.3394447653141228  0.8810531209265505  0.4463982037497249
  0.3417861889990619  0.8672691408535309  0.9396214191246846
  0.1775489629992650 -0.0194345454338556  0.0717741130563800
  0.1455493576570882  0.0067636361690411  0.5666212840795835
  0.1645232229140194  0.2409337129613043  0.0593922941246010
  0.1523067260819078  0.2536497372204961  0.5444111247800220
  0.1725864693338137  0.4877892533490160  0.0515730248537337
  0.1638433210253957  0.4973378513716655  0.5576978875112142
  0.1615918993583845  0.7479228662113953  0.0582237859304212
  0.1358526480004793  0.7615082428123608  0.5652965061051002
