This file is generated by VASPKIT code
 1.000000
   27.5158950200000021    0.0000000000000000    0.0000000000000000
    0.0000000000000000   12.3794622899999993    0.0000000000000000
   -2.7916247670000001    0.0000000000000000   11.4593908399999993
   Ga   O 
    64    96
Direct
    0.5781018149123459    0.0031050287945026    0.1580144660493799     Ga1
    0.5760945460381911    0.9974847284675471    0.6602629946117141     Ga2
    0.5705288143626791    0.2479052348488003    0.1442900392540390     Ga3
    0.5701557164750520    0.2370949695047855    0.6469414561557789     Ga4
    0.5707575323888379    0.4936057302626402    0.1652636688166827     Ga5
    0.5712259394136521    0.4923302432620226    0.6558969475016947     Ga6
    0.5760958375023475    0.7477282871701176    0.1442839716550108     Ga7
    0.5702172656385810    0.7528829807283426    0.6660685848216817     Ga8
    0.6563032787558488    0.1249579462439397    0.3486577111647038     Ga9
    0.6566665436538311    0.1139711015975808    0.8413648844091055    Ga10
    0.6548679426624625    0.3748711683103579    0.3377632216221578    Ga11
    0.6543277629005927    0.3699344975428751    0.8227111546549580    Ga12
    0.6514972890415672    0.6210363054560381    0.3421382277879034    Ga13
    0.6582017847797352    0.6298700986843111    0.8505931569499247    Ga14
    0.6558275738726959    0.8663204343204385    0.3388186949476421    Ga15
    0.6569024230269965    0.8834836821961879    0.8446132607656099    Ga16
    0.5366136040431240    0.1264944624027991    0.3855166824654367    Ga17
    0.5394521888057867    0.1287824959798148    0.8876869017285237    Ga18
    0.5446845230522777    0.3751923134833081    0.4003099453633315    Ga19
    0.5403491100488170    0.3853125685432661    0.8883830130277980    Ga20
    0.5406928754442896    0.6331029943527352    0.3930179492483418    Ga21
    0.5428156251112318    0.6233252804782795    0.9058678379839190    Ga22
    0.5463607346156200    0.8757214686627104    0.4092453235633877    Ga23
    0.5408172298626287    0.8796050454391142    0.8956042407614324    Ga24
    0.6862981103621221    0.0071082416416676    0.1050864047637159    Ga25
    0.6867497997675995    0.0082359954281297    0.6035423561118597    Ga26
    0.6837964028817605    0.2503073928922995    0.0905177784258575    Ga27
    0.6846868072493989    0.2674593726070885    0.6028479386916844    Ga28
    0.6799101530367463    0.4981217480591831    0.0968062856478681    Ga29
    0.6826615305825544    0.4935109132963303    0.6049689052653971    Ga30
    0.6917241751851125    0.7441152864443680    0.1146596432113928    Ga31
    0.6858848944300551    0.7492255701608546    0.5964136029201371    Ga32
    0.3486717333366093    0.1192238252258581    0.1635205918894284    Ga33
    0.3387645889152624    0.1339208344131118    0.6517759802791346    Ga34
    0.3428325589202801    0.3676667785386267    0.1633811038739870    Ga35
    0.3438416050065952    0.3802494708319387    0.6492308474086814    Ga36
    0.3452567235821721    0.6145242296207751    0.1615321502734520    Ga37
    0.3420973337651662    0.6313128594122519    0.6574503886349383    Ga38
    0.3428728053852179    0.8651057954952390    0.1678144148780369    Ga39
    0.3366806729636517    0.8772865597613688    0.6628041542384620    Ga40
    0.4329658723477192    0.9990160831058847    0.3506416229606404    Ga41
    0.4234977790010638    0.0029723873721255    0.8483499110706010    Ga42
    0.4283560559626621    0.2524247528600608    0.3424155622935542    Ga43
    0.4269497701266797    0.2528185258574764    0.8368840545020052    Ga44
    0.4289392394703176    0.4976384223528413    0.3433742247321243    Ga45
    0.4277149839913267    0.5045599822663861    0.8432781270062017    Ga46
    0.4311049616444150    0.7452862384389140    0.3481470161431814    Ga47
    0.4271920900987164    0.7583981476120104    0.8297255992334328    Ga48
    0.3124986518805971    0.9898848475349606    0.4009753994870455    Ga49
    0.3167756179145356    0.9885473054561318    0.9180960187140602    Ga50
    0.3091875435242890    0.2504538120352822    0.3818035141604113    Ga51
    0.3092589787505913    0.2391635068890302    0.9047235831993814    Ga52
    0.3142430520630682    0.5038675631744244    0.4015871160024654    Ga53
    0.3152223473642902    0.4816795796216529    0.8845664522054493    Ga54
    0.3174930523752600    0.7519004035482076    0.4092326454173992    Ga55
    0.3108902008274099    0.7458432187735873    0.9033438451155795    Ga56
    0.4587865196593308    0.1227214465082098    0.1087237238531035    Ga57
    0.4574134376908731    0.1296611364033274    0.6189939703721744    Ga58
    0.4576319880957613    0.3793904881060307    0.1110464623919988    Ga59
    0.4579512616949474    0.3799837370129259    0.6024777552384458    Ga60
    0.4540566304788448    0.6275289996789777    0.1017053068835380    Ga61
    0.4560609059101458    0.6359169287016319    0.5953069658912621    Ga62
    0.4621677469023223    0.8651235152208049    0.0998708902347504    Ga63
    0.4561855906973291    0.8816874318007142    0.6013543234742430    Ga64
    0.2743338875357223    0.1233808688137369    0.1180956168295636      O1
    0.7210804197709325    0.1346702481000448    0.6361594677614660      O2
    0.7205291444566622    0.3678035464338240    0.1115076307613903      O3
    0.7244480041917237    0.3837451833745726    0.6339127335770188      O4
    0.2739046537088644    0.6174759833103858    0.1234794544858229      O5
    0.7233201250100912    0.6213599204100367    0.6251743991835813      O6
    0.7233029008759639    0.8749497680804796    0.1464052085872466      O7
    0.7215344540209084    0.8818166891734252    0.6481342458079732      O8
    0.5060879177804767    0.9979175962459430    0.3773806707029465      O9
    0.5000299391114312    0.0086162645188859    0.8727591857700675     O10
    0.5031286762008548    0.2633546680834131    0.3654207925686965     O11
    0.5041764077490871    0.2441974565184790    0.8597459671188312     O12
    0.5029078176461456    0.5007130474233848    0.3742546218498206     O13
    0.4994582546322764    0.5067495639993524    0.8605774776551425     O14
    0.5029348272824014    0.7586501449259551    0.3825150127227298     O15
    0.5081472399375470    0.7563318053163243    0.8469808052541705     O16
    0.5772179594404454    0.1364125666762206    0.2864681188548849     O17
    0.5814287501630774    0.1282917252716263    0.7774754766269200     O18
    0.5833066724890036    0.3808365347520463    0.2822920939546404     O19
    0.5778308471358661    0.3775850039472674    0.7779381635397682     O20
    0.5804039376549027    0.6315961588961923    0.2738612135889093     O21
    0.5777154572033706    0.6239801012369425    0.7845366190826613     O22
    0.5794826380656820    0.8683929356411021    0.2873799885316287     O23
    0.5770069893760943    0.8753302984978925    0.7829724823196721     O24
    0.6493535101648610    0.0079210140474086    0.2119583122868483     O25
    0.6507264430661371    0.0120743088622409    0.7287968696057822     O26
    0.6526336996884924    0.2495169733939310    0.2208513559660748     O27
    0.6498256745416932    0.2525611908281608    0.7141841570035919     O28
    0.6474556018017158    0.4924736153982404    0.2135164613072113     O29
    0.6500497073430356    0.5014419434225945    0.7247638321200200     O30
    0.6539961645356601    0.7528093681745986    0.2228048812980576     O31
    0.6518483886684702    0.7564732394152447    0.7176742762349532     O32
    0.6552709995649212    0.0094913174796974    0.4529268646506539     O33
    0.6560864011890016    0.0015595384960608    0.9513857905279780     O34
    0.6566559443162535    0.2622142869443009    0.4502394360859108     O35
    0.6508216709037292    0.2457654980398338    0.9349803992324666     O36
    0.6540474074187954    0.5070165876061670    0.4409018466811465     O37
    0.6538703537397691    0.4860539463182420    0.9307772817736274     O38
    0.6444173585326570    0.7508177699800387    0.4408060239571819     O39
    0.6569672833803302    0.7586596164071301    0.9548807658069030     O40
    0.5719970109686795    0.1259891413406186    0.0545896796401494     O41
    0.5704328200200205    0.1226836310332027    0.5466243758694035     O42
    0.5758582654394394    0.3781221600927641    0.0515179883502405     O43
    0.5783893524261617    0.3741256332176544    0.5485749395304859     O44
    0.5792757896068567    0.6211504135969890    0.0550625805419301     O45
    0.5721259025134628    0.6137507603167959    0.5523731331301817     O46
    0.5781524877659145    0.8678281216172669    0.0537896952378053     O47
    0.5752271673595303    0.8797061712471594    0.5694370950234650     O48
    0.5012843379471542    0.9997722944940227    0.1332711867795137     O49
    0.4981909238027813    0.0018070455471456    0.6323850054372767     O50
    0.4950575709015222    0.2586877459651918    0.1334862013024251     O51
    0.4952212949171529    0.2575621010519538    0.6205071843460451     O52
    0.4989383087942817    0.5070478916516336    0.1139210106356349     O53
    0.4911603214231811    0.5095065144372358    0.6184720218834933     O54
    0.4999564145689308    0.7421923568849359    0.1125436537872938     O55
    0.4935011281167440    0.7536259319622506    0.6227822123468485     O56
    0.2771139529315877    0.1231398179080196    0.3612314710840182     O57
    0.2734372493433440    0.1089085492883962    0.8894797737464359     O58
    0.2771468970130863    0.3813757757242405    0.3715914456884121     O59
    0.2732643229914574    0.3684880730192195    0.8618842672471257     O60
    0.2733880669001633    0.6256682051123893    0.3597833496725661     O61
    0.2747699098087645    0.6116281660738421    0.8616901008507136     O62
    0.7261178512917302    0.8822275476593099    0.3767293290316130     O63
    0.7267356770085426    0.8730726866918780    0.8803096911655718     O64
    0.3513646190070284    0.0055134276005562    0.2904088527082569     O65
    0.3521159581079469    0.0144475544795606    0.7908639982229506     O66
    0.3529171146768081    0.2548166650701484    0.2782368392343715     O67
    0.3479864240367292    0.2535999379861757    0.7810859012136772     O68
    0.3541893957547816    0.4870162179345147    0.2841864081069327     O69
    0.3520461186163714    0.5043378194317771    0.7727948811995023     O70
    0.3545186971414908    0.7395584063824289    0.2897310906832326     O71
    0.3512499609219361    0.7553585022116096    0.7870067094950427     O72
    0.4238619572046433    0.1178724154255252    0.2224944186698710     O73
    0.4220427753843993    0.1287072513548291    0.7289179277481757     O74
    0.4215329676772432    0.3674850529975093    0.2203265276242129     O75
    0.4143655579950580    0.3772599230565428    0.7146477552483492     O76
    0.4219487938823842    0.6169245856938844    0.2101734259120886     O77
    0.4137323892162182    0.6381280957123164    0.6987276268739838     O78
    0.4266493032163193    0.8596235376036242    0.2182883142782549     O79
    0.4109722493978947    0.8760226760050620    0.7068042787782713     O80
    0.4362205696196187    0.1304384231334399    0.4481824489186209     O81
    0.4306775820431350    0.1344149419185719    0.9553444494667667     O82
    0.4268949782928988    0.3641387902331629    0.4409074358519328     O83
    0.4299527065301499    0.3816904864549290    0.9386745835009187     O84
    0.4214150036192573    0.6290695347495046    0.4452691225905919     O85
    0.4243610461331127    0.6315121088152374    0.9397225375533124     O86
    0.4265180947822006    0.8800577865880784    0.4463194685806260     O87
    0.4273105911061074    0.8685186323009084    0.9405853036195782     O88
    0.3518794401976671    0.9840154253992291    0.0686059807727733     O89
    0.3399986374700990    0.0056017951270658    0.5645560882899723     O90
    0.3470344238969193    0.2425753284258881    0.0585495310832600     O91
    0.3425178883212443    0.2530168098917051    0.5462869774808177     O92
    0.3500986792264035    0.4900328588886267    0.0522106908592710     O93
    0.3468037042500098    0.4975828498504776    0.5572779787361881     O94
    0.3459730575191363    0.7484089642786804    0.0574203556392414     O95
    0.3363410884254164    0.7594599209635609    0.5634206425316605     O96
