This file is generated by VASPKIT code
 1.000000
   27.4769592700000018    0.0000000000000000    0.0000000000000000
    0.0000000000000000   12.3551835200000006    0.0000000000000000
   -2.7851830880000001    0.0000000000000000   11.4371253999999993
   Ga   O 
    64    96
Direct
    0.5761192557304644    0.0022982300313445    0.1577517689753248     Ga1
    0.5746985843291557    0.9980725969446907    0.6593485888302500     Ga2
    0.5706328828233449    0.2484267040348735    0.1478589187318825     Ga3
    0.5703761001829828    0.2406415977902771    0.6498240809429648     Ga4
    0.5708086870051803    0.4953805102039286    0.1629985534562527     Ga5
    0.5711777287056963    0.4944074545619049    0.6561929456853679     Ga6
    0.5746201232505794    0.7483995947256753    0.1478580912613796     Ga7
    0.5703958671397829    0.7523031669136477    0.6634445133261818     Ga8
    0.6555448716325685    0.1248135347108104    0.3470384426975046     Ga9
    0.6558017990098610    0.1169488358276172    0.8417735541576312    Ga10
    0.6544694460573388    0.3748652890400596    0.3392747585367181    Ga11
    0.6541451902118016    0.3714187655564923    0.8284366805971066    Ga12
    0.6520559651576479    0.6220947833539937    0.3423477724888650    Ga13
    0.6569331536062426    0.6285078218511778    0.8484445943983767    Ga14
    0.6552613320590475    0.8686291520089598    0.3399409456315903    Ga15
    0.6559991522640944    0.8812445233962696    0.8440928229274755    Ga16
    0.5375588760013592    0.1259115110841368    0.3887817676732553    Ga17
    0.5395344089556848    0.1277408114449526    0.8903579826036739    Ga18
    0.5433158599106922    0.3749832899224066    0.3995902621201932    Ga19
    0.5402381509192158    0.3825469749082663    0.8908587208782872    Ga20
    0.5404324178612236    0.6309275700948541    0.3942077712099436    Ga21
    0.5419860980859301    0.6236489103513352    0.9035775672742755    Ga22
    0.5444772232853123    0.8754524577116182    0.4058728681287674    Ga23
    0.5405644834280421    0.8781713145437788    0.8960431798029813    Ga24
    0.6857603820945908    0.0051724513033790    0.1043719909444383    Ga25
    0.6861740292932266    0.0057902159832808    0.6031797203463056    Ga26
    0.6840456401304538    0.2504102085880075    0.0940116388610368    Ga27
    0.6846575755002076    0.2626255484768856    0.6027780340735863    Ga28
    0.6812358500363302    0.4987742088970664    0.0986621122313447    Ga29
    0.6832648197496540    0.4950447549713010    0.6044064008123957    Ga30
    0.6896932468891976    0.7457444945173812    0.1113599923573849    Ga31
    0.6855774739545937    0.7494621749261448    0.5981663894413212    Ga32
    0.3475920816474875    0.1209242233235636    0.1616553082251551    Ga33
    0.3405069679886012    0.1312592916353807    0.6531269255303387    Ga34
    0.3434391619422539    0.3697442101794433    0.1617004050279989    Ga35
    0.3441338409792336    0.3788373153175146    0.6514155171158041    Ga36
    0.3451301894794398    0.6176306219551968    0.1603949623920356    Ga37
    0.3429122812624580    0.6296072508971544    0.6572486902924778    Ga38
    0.3433681568487598    0.8679485787637086    0.1646195764299647    Ga39
    0.3390004898103908    0.8764665579003973    0.6609484443962031    Ga40
    0.4314391322008436    0.9992963518437217    0.3484948953392217    Ga41
    0.4246602608967884    0.0020383948431587    0.8467740169518087    Ga42
    0.4280849713249060    0.2517834670607242    0.3425104122906137    Ga43
    0.4271426193784361    0.2519591391598262    0.8385165205556260    Ga44
    0.4285370469524786    0.4984231671389039    0.3432095940816677    Ga45
    0.4277161598523796    0.5031888035181346    0.8432413112776403    Ga46
    0.4301149736863644    0.7464631198981329    0.3467735441284831    Ga47
    0.4272669189318046    0.7560999772753162    0.8335435785322972    Ga48
    0.3128428597402537    0.9924597892393222    0.3998873661961605    Ga49
    0.3159187223149518    0.9917757654184434    0.9122383394753558    Ga50
    0.3104686043415160    0.2503020342175606    0.3861294449045705    Ga51
    0.3105306867475365    0.2423426328585038    0.9027071737617940    Ga52
    0.3141202069439022    0.5027229271251601    0.4004503232999557    Ga53
    0.3148020736406211    0.4867498002905667    0.8879744918066382    Ga54
    0.3165615006785977    0.7514119436819359    0.4061078075092646    Ga55
    0.3117366086522718    0.7472165651767140    0.9016780621087367    Ga56
    0.4586365010101681    0.1233373742795659    0.1069777837791030    Ga57
    0.4577112461512781    0.1283596106657809    0.6144745829233518    Ga58
    0.4579279969596737    0.3780806484258926    0.1089133130066549    Ga59
    0.4582045674684860    0.3785127117236568    0.6025677322039328    Ga60
    0.4553184965182754    0.6268725484134288    0.1022372437429667    Ga61
    0.4568011376614925    0.6328693626640239    0.5973162635391887    Ga62
    0.4611127077332391    0.8677622806801203    0.1006096231672149    Ga63
    0.4568776803576649    0.8796986982039396    0.6015803245666524    Ga64
    0.2736754302134615    0.1233598601209545    0.1209369959246523      O1
    0.7217001898520428    0.1316114997178602    0.6339845478891037      O2
    0.7211368921748851    0.3690446992760459    0.1159358197708833      O3
    0.7239811264719425    0.3813957019587524    0.6324120031766873      O4
    0.2734495883351863    0.6199962588675071    0.1249687507237206      O5
    0.7234328746992289    0.6222260580228128    0.6263409714344815      O6
    0.7230960130885389    0.8746637619022914    0.1412166024645037      O7
    0.7221401949559456    0.8801869630115604    0.6428594542743195      O8
    0.5048141036133069    0.9988215765783847    0.3759421778509540      O9
    0.5002960973135668    0.0069060034015120    0.8724403379733778     O10
    0.5025638278598783    0.2603842814301773    0.3671848660422827     O11
    0.5034443365705779    0.2443942162603106    0.8631114814693672     O12
    0.5023358208624848    0.5002757104402865    0.3737829763120525     O13
    0.4998474412966892    0.5049022617331784    0.8637311892346989     O14
    0.5023385650496535    0.7565911276693921    0.3796533654968537     O15
    0.5066598284702142    0.7550882871041101    0.8537067312707599     O16
    0.5770637185638534    0.1335200551137850    0.2858478217276890     O17
    0.5805600959020367    0.1276330618632865    0.7787961505711382     O18
    0.5820044247950213    0.3792816077526814    0.2823732133048113     O19
    0.5779024450032595    0.3769311104238882    0.7797821239704786     O20
    0.5798440309255237    0.6299928380828177    0.2758193825986858     O21
    0.5775022615226171    0.6240875664398100    0.7839961265542555     O22
    0.5787887996257191    0.8698803960472973    0.2862625955668195     O23
    0.5768801234228651    0.8749624035384781    0.7827212088806178     O24
    0.6488201052790008    0.0059192665961894    0.2128356224736138     O25
    0.6496783740396352    0.0090363123887438    0.7262395460877207     O26
    0.6512500828272976    0.2497942786809258    0.2203737985798104     O27
    0.6492225131652472    0.2518626944137887    0.7151803545016707     O28
    0.6472953621517064    0.4941663226729699    0.2144854364469358     O29
    0.6493459285754284    0.5012031279885579    0.7234665950962674     O30
    0.6522024083559426    0.7522802041974831    0.2213884246061738     O31
    0.6507076338354993    0.7548017143474599    0.7174075313817183     O32
    0.6543034467406603    0.0075914076564085    0.4517597533261281     O33
    0.6550204262078609    0.0013596222598953    0.9499240340096538     O34
    0.6552700881395706    0.2592133305290413    0.4495893478170634     O35
    0.6510073152405838    0.2470459256982610    0.9380782312577228     O36
    0.6533179509003255    0.5055933318624201    0.4419110693057942     O37
    0.6531751573434850    0.4892250341047824    0.9341640273845498     O38
    0.6461636782983331    0.7506733585855926    0.4415979112448561     O39
    0.6553423169657251    0.7567460044258175    0.9524074507246261     O40
    0.5723215094739142    0.1257612156384050    0.0552484722026931     O41
    0.5711287590737486    0.1234863363453023    0.5488503042698462     O42
    0.5752455941875874    0.3774186697473679    0.0527871734885041     O43
    0.5768420129111613    0.3746430590507099    0.5494795561747586     O44
    0.5774372801728196    0.6224675115114316    0.0547893227245022     O45
    0.5724010722690938    0.6159862068568169    0.5525935471608507     O46
    0.5767870678952696    0.8691695301325940    0.0540927188612007     O47
    0.5745579261824683    0.8788019272491417    0.5657546498362525     O48
    0.5002603158949082    0.0002631684359439    0.1320021658997469     O49
    0.4979987787783334    0.0011036439114579    0.6311080665610179     O50
    0.4954868604269601    0.2568819403176675    0.1320826810856146     O51
    0.4956142699233089    0.2556608979122486    0.6224210661500499     O52
    0.4987139430972906    0.5053130512634995    0.1177985696865094     O53
    0.4925788463308795    0.5071517537059823    0.6210838653768728     O54
    0.4991164740346395    0.7443924012471549    0.1167566532625268     O55
    0.4943652684311982    0.7521229700305561    0.6244717472362463     O56
    0.2767918713172605    0.1239718357110844    0.3641645962598317     O57
    0.2736892932849304    0.1132637276096488    0.8844971896724907     O58
    0.2768302467443677    0.3797184864561828    0.3719245077967960     O59
    0.2737280559441622    0.3708877366793953    0.8645898302192531     O60
    0.2737356589718042    0.6249905624403645    0.3628689970326657     O61
    0.2746398389958016    0.6151388711093683    0.8641691767220203     O62
    0.7261763340720473    0.8816286265221241    0.3750055211920617     O63
    0.7265504116648136    0.8737423895921896    0.8775823131001280     O64
    0.3511902763896691    0.0045506247090197    0.2880408586816007     O65
    0.3521909563889624    0.0108338930569856    0.7880797727732769     O66
    0.3526328286618421    0.2538336988072375    0.2792135006525396     O67
    0.3490406587675544    0.2527342917333558    0.7811885187607156     O68
    0.3536105293272927    0.4902148772350317    0.2835925868112790     O69
    0.3519391574454944    0.5031651621051497    0.7751816194879627     O70
    0.3538446021993707    0.7421327113895878    0.2875150473783513     O71
    0.3516728078926909    0.7537990872363739    0.7855733207188855     O72
    0.4230646660672391    0.1198594945739380    0.2208782441989806     O73
    0.4219901224197904    0.1275630911969391    0.7261662263870242     O74
    0.4213517652936005    0.3692900329950986    0.2196071061036899     O75
    0.4157784846669761    0.3766985421075305    0.7158623548639902     O76
    0.4217349485859369    0.6190916858712998    0.2113809475973576     O77
    0.4155132227003371    0.6345302291441889    0.7033765080048996     O78
    0.4252345285733779    0.8637223619128298    0.2177917320018377     O79
    0.4133946868520700    0.8754671024202586    0.7096889072576834     O80
    0.4332491928816174    0.1292371990282963    0.4471434196310639     O81
    0.4293672170734530    0.1320920760997841    0.9531190568714167     O82
    0.4264770355048690    0.3662495219378540    0.4417824816011131     O83
    0.4285771858606771    0.3800051917742696    0.9398866379483148     O84
    0.4226016382691793    0.6281834257270296    0.4460323557356696     O85
    0.4245648716080291    0.6295358094883268    0.9415966101357258     O86
    0.4263573683695810    0.8789624742936051    0.4462944721852656     O87
    0.4266766892354155    0.8698628504510468    0.9416568777721926     O88
    0.3504443410562442    0.9882732857742377    0.0645025350492444     O89
    0.3420494570366090    0.0042070647259764    0.5620871294057004     O90
    0.3469848543930175    0.2446705846025781    0.0575263845508638     O91
    0.3438646867179410    0.2522399151599539    0.5487546095577303     O92
    0.3493811546500102    0.4929563023731824    0.0531778237639479     O93
    0.3468893787776664    0.4975077674265087    0.5569582487387664     O94
    0.3463408179455452    0.7492384345177604    0.0561988899386594     O95
    0.3392560541781747    0.7569167130571389    0.5610970103393190     O96
