This file is generated by VASPKIT code
 1.000000
   27.5606442799999947    0.0000000000000000    0.0000000000000000
    0.0000000000000000   12.4073661400000006    0.0000000000000000
   -2.7990282560000002    0.0000000000000000   11.4849807500000001
   Ga   O 
    64    96
Direct
    0.5799074781510769    0.0037661868840166    0.1582272847648583     Ga1
    0.5774459272271339    0.9969739899996706    0.6609827320169227     Ga2
    0.5706608445563304    0.2474682165935709    0.1414833112638768     Ga3
    0.5702019842577726    0.2342730938958352    0.6446973048968783     Ga4
    0.5709379778216543    0.4922017153546853    0.1670663546105751     Ga5
    0.5714987819969999    0.4906607528832609    0.6556561993049969     Ga6
    0.5774738351164055    0.7472136926186980    0.1414717380553730     Ga7
    0.5702844804383402    0.7534372830861483    0.6680949104132160     Ga8
    0.6571625778125698    0.1250075962342532    0.3499230441208884     Ga9
    0.6576070955978652    0.1115794075171143    0.8410250444446457    Ga10
    0.6554223552950587    0.3748569544204984    0.3365986473418131    Ga11
    0.6547396459601518    0.3687910585860114    0.8182246462371461    Ga12
    0.6512952863928254    0.6201796221409545    0.3419596152278003    Ga13
    0.6594739779622159    0.6309438453821620    0.8522787426578603    Ga14
    0.6565578065840654    0.8644518145298977    0.3379152917108727    Ga15
    0.6578844152880088    0.8853111223733647    0.8449950977378773    Ga16
    0.5360695432497928    0.1268903797906444    0.3829289582498080    Ga17
    0.5395703007771346    0.1296055499867707    0.8855739620863754    Ga18
    0.5459572969911930    0.3752900502173530    0.4009185186276283    Ga19
    0.5406405501068356    0.3875368824509615    0.8864240605282052    Ga20
    0.5410798147909532    0.6348554518252654    0.3920643242336901    Ga21
    0.5436665962020024    0.6230069601436350    0.9077157831335654    Ga22
    0.5480212662916830    0.8759084602413387    0.4118885297347337    Ga23
    0.5412183714887853    0.8806796519711848    0.8952410155703696    Ga24
    0.6869729208434590    0.0086571927049631    0.1056304480379335    Ga25
    0.6874933783667214    0.0101029328046655    0.6037877205389361    Ga26
    0.6838828338822391    0.2502989771646999    0.0878080228747848    Ga27
    0.6849832387880279    0.2712866774852751    0.6029003319311230    Ga28
    0.6791367268839350    0.4976625786322826    0.0954356077453338    Ga29
    0.6824818084040996    0.4921791296360121    0.6054496678466580    Ga30
    0.6935940394663624    0.7428235281128025    0.1172831266576141    Ga31
    0.6864278246233841    0.7490466920262402    0.5950295304291424    Ga32
    0.3496048925540308    0.1179232093827444    0.1649688598151615    Ga33
    0.3374772740723372    0.1359462859953798    0.6506595387395694    Ga34
    0.3424490490116075    0.3660406336934913    0.1647498275970598    Ga35
    0.3436926238746631    0.3813845684157604    0.6475137935458870    Ga36
    0.3454326448348644    0.6121548803515325    0.1624803296603272    Ga37
    0.3415502992186307    0.6326783692708204    0.6575748735958190    Ga38
    0.3425312185478412    0.8629016565091936    0.1702493315270308    Ga39
    0.3349325289244539    0.8778550115460004    0.6641612154679467    Ga40
    0.4342949335958459    0.9988011502626363    0.3523303886845515    Ga41
    0.4227071272294967    0.0036645826758068    0.8495596297511885    Ga42
    0.4286717528883346    0.2529467988958063    0.3423098438904714    Ga43
    0.4269280859366173    0.2534633852636060    0.8355648318492112    Ga44
    0.4293732210125772    0.4970711855224704    0.3434816641285221    Ga45
    0.4278540613045553    0.5055988261821828    0.8433264538882181    Ga46
    0.4320148788392489    0.7442959816733108    0.3492623414487324    Ga47
    0.4272436922149384    0.7602274733615858    0.8267669617259092    Ga48
    0.3122741752168927    0.9877543212324426    0.4018063508137533    Ga49
    0.3175011210565683    0.9860155161387519    0.9226818610951257    Ga50
    0.3082241312499049    0.2505647275046216    0.3783871487567144    Ga51
    0.3083032044628608    0.2367251324873480    0.9063307676933754    Ga52
    0.3144001380580914    0.5047390488953158    0.4025100591601630    Ga53
    0.3156044639362075    0.4776638710410206    0.8818080559390394    Ga54
    0.3183314738042377    0.7523090560854121    0.4117802194460756    Ga55
    0.3102862614601241    0.7448536286211065    0.9046541510100526    Ga56
    0.4590069652258404    0.1222314685391878    0.1100805506142585    Ga57
    0.4573052372449285    0.1306857659545189    0.6225758066214063    Ga58
    0.4575501265552278    0.3803946670628139    0.1128167810731536    Ga59
    0.4579216276456913    0.3811105861956867    0.6024236789604985    Ga60
    0.4531949850062788    0.6280667775366667    0.1013993513452977    Ga61
    0.4556284542616122    0.6383201796674705    0.5937080654398647    Ga62
    0.4631262492871741    0.8629931920212884    0.0992655494962324    Ga63
    0.4557871455625342    0.8832009068156930    0.6011210968633710    Ga64
    0.2749576264986774    0.1232162420669725    0.1158397594900756      O1
    0.7208727860596433    0.1369423001134641    0.6378805658416598      O2
    0.7202660326839061    0.3665439319812426    0.1079007684325921      O3
    0.7250463698257605    0.3856289062000271    0.6351263026660542      O4
    0.2744012038286012    0.6156486750805060    0.1223539242334094      O5
    0.7235633916314328    0.6206201009146048    0.6243696326820332      O6
    0.7236710782048925    0.8750560301417086    0.1504420533789046      O7
    0.7213856065385262    0.8831999422528660    0.6524020784354975      O8
    0.5073233326321627    0.9973241806795095    0.3785844453375988      O9
    0.4999843751703864    0.0102208837613183    0.8730122043874163     O10
    0.5037568123712546    0.2659801046209341    0.3640387515157757     O11
    0.5049909425269696    0.2435076455678195    0.8571084879676849     O12
    0.5035094391203576    0.5009776726018533    0.3747343298260393     O13
    0.4992954971828317    0.5082142043287022    0.8581150926056528     O14
    0.5035499391290545    0.7604071979638494    0.3848530550741908     O15
    0.5096940651669788    0.7575078188278639    0.8415877584154396     O16
    0.5774412026530609    0.1388189511115715    0.2871889142961519     O17
    0.5824034661627822    0.1289245192559829    0.7764454493200834     O18
    0.5846653035847960    0.3820968334829505    0.2822915388734205     O19
    0.5780297158546632    0.3781278360643811    0.7767417588285757     O20
    0.5811381743683848    0.6329690932795449    0.2721750005334237     O21
    0.5780120112064770    0.6238203001136711    0.7849937931085746     O22
    0.5801708158189780    0.8670735919561907    0.2883993544924972     O23
    0.5771892736533182    0.8755027302117494    0.7831456732755705     O24
    0.6501004857348667    0.0095931497267086    0.2109814629401992     O25
    0.6518410273758084    0.0146052163105021    0.7310178207296514     O26
    0.6540994112340550    0.2493474148614137    0.2214013984597816     O27
    0.6506639028247960    0.2531279606608657    0.7133972811397766     O28
    0.6478548379202249    0.4909697495520966    0.2126499653290368     O29
    0.6509545037573650    0.5017030186140392    0.7260422210134416     O30
    0.6557750158268336    0.7533382818136563    0.2239225980204884     O31
    0.6531206905926863    0.7578519815348707    0.7177575852183173     O32
    0.6563426838193480    0.0112973999512612    0.4541764698214679     O33
    0.6572993667186509    0.0018129341127027    0.9526048192279093     O34
    0.6580537469978196    0.2647511315722025    0.4510079594780396     O35
    0.6509467245882514    0.2447916543636114    0.9326010979637785     O36
    0.6548989494125639    0.5083666315363097    0.4400004729994430     O37
    0.6546921516984632    0.4832652921159543    0.9278482630569572     O38
    0.6432071588939658    0.7509757855429652    0.4399865150584559     O39
    0.6584888744740200    0.7603728583622611    0.9568777015427973     O40
    0.5719518678519242    0.1261891436091497    0.0543496738899724     O41
    0.5700643961933933    0.1221181160054716    0.5448866831794685     O42
    0.5766192216312880    0.3787417567335667    0.0506789702706060     O43
    0.5798061273881974    0.3738318060401385    0.5475967352984414     O44
    0.5809004245428560    0.6202103195247143    0.0552375969234820     O45
    0.5721188590583481    0.6116208205195754    0.5520563368622956     O46
    0.5794674755812543    0.8665045099244032    0.0536022438602382     O47
    0.5759310458218174    0.8805819532019060    0.5725290944937361     O48
    0.5022893871775638    0.9995427880328555    0.1343153378607337     O49
    0.4985200559041672    0.0022819028803233    0.6333255261409053     O50
    0.4947936844261927    0.2603527534678131    0.1346128385171037     O51
    0.4949919899634015    0.2591441405362649    0.6188874414448641     O52
    0.4993669356571428    0.5085074892780586    0.1107934242002688     O53
    0.4900677992423628    0.5114696280992521    0.6163578957994538     O54
    0.5007404815774243    0.7404677345348095    0.1091363950890264     O55
    0.4928925831676833    0.7546213516850037    0.6215107575824754     O56
    0.2775121221558164    0.1226019620486879    0.3589235931049076     O57
    0.2732011287505190    0.1054282968338964    0.8934140797208632     O58
    0.2775458338755422    0.3827328894004132    0.3714610415641023     O59
    0.2729245064117626    0.3668181746342069    0.8597427732686437     O60
    0.2731109706080166    0.6260283821030805    0.3572527253335402     O61
    0.2748329556789484    0.6087891899581732    0.8596115216841415     O62
    0.7262913916306699    0.8832322329692491    0.3779622117465913     O63
    0.7270754935882373    0.8725978257236906    0.8823258954436889     O64
    0.3514781010690409    0.0065077229462595    0.2922377450772869     O65
    0.3522162160259043    0.0174818302531981    0.7929335290170673     O66
    0.3532466912547208    0.2557471557060215    0.2774143644959717     O67
    0.3472312068678866    0.2543339786071545    0.7809310360240129     O68
    0.3547829928544455    0.4843199682246190    0.2846548728638774     O69
    0.3522042401429968    0.5052886301770041    0.7708244740751266     O70
    0.3551850269666229    0.7373851973622532    0.2914483176627136     O71
    0.3511133155415809    0.7565625147161641    0.7881176375968409     O72
    0.4246465768569896    0.1162946272816784    0.2236434972110935     O73
    0.4223427882921859    0.1295621110487186    0.7312397451445504     O74
    0.4218184951656872    0.3659419433912612    0.2208770275138464     O75
    0.4132210904053245    0.3777290179103313    0.7138044166761438     O76
    0.4222876430035410    0.6151798406600604    0.2088630881018332     O77
    0.4123632823769359    0.6409983532045506    0.6947745225490886     O78
    0.4279904454868469    0.8563091563711911    0.2185455999870162     O79
    0.4090448341123714    0.8763430796842763    0.7044270279457963     O80
    0.4387439533283014    0.1315104048132029    0.4488840046114049     O81
    0.4319195424938918    0.1363696201353738    0.9572973483215469     O82
    0.4273643021831962    0.3621010211177919    0.4400630091317455     O83
    0.4311447530518268    0.3830930248259308    0.9374618953490583     O84
    0.4206273389441404    0.6298741453737838    0.4449141185229408     O85
    0.4242966452524330    0.6330081492037489    0.9383432232593214     O86
    0.4268412077257437    0.8810531209265505    0.4463982037497248     O87
    0.4279083014306840    0.8672691408535308    0.9396214191246844     O88
    0.3530578969060544    0.9805654545661444    0.0717741130563800     O89
    0.3384742153447658    0.0067636361690411    0.5666212840795835     O90
    0.3471214722698120    0.2409337129613043    0.0593922941246010     O91
    0.3415538567417797    0.2536497372204961    0.5444111247800220     O92
    0.3507962619079669    0.4877892533490160    0.0515730248537337     O93
    0.3468116099283681    0.4973378513716654    0.5576978875112142     O94
    0.3457855342533472    0.7479228662113951    0.0582237859304212     O95
    0.3340549819101000    0.7615082428123608    0.5652965061051002     O96
