This file is generated by VASPKIT code
 1.000000
   27.4680689999999998    0.0000000000000000    0.0000000000000000
    0.0000000000000000   12.3494279999999996    0.0000000000000000
   -2.7833760000000001    0.0000000000000000   11.4316300000000002
   Ga   O 
    64    96
Direct
    0.5747812277884621    0.0015827547705292    0.1577064406061877     Ga1
    0.5741510566034536    0.9984100427037520    0.6584949298894286     Ga2
    0.5712739576319483    0.2487932529627644    0.1520731603850058     Ga3
    0.5712827840658303    0.2440158879049273    0.6533181039825346     Ga4
    0.5715982154089168    0.4971121517816773    0.1610552414114071     Ga5
    0.5719106621611322    0.4961064062597206    0.6566153614322775     Ga6
    0.5735579052723935    0.7492177598122001    0.1516327852102098     Ga7
    0.5711020048565978    0.7523287893323830    0.6601169123626230     Ga8
    0.6555155479108064    0.1243315321613629    0.3456583201537516     Ga9
    0.6555927508838137    0.1200487717576318    0.8422050691510305    Ga10
    0.6546071621922969    0.3745950176455987    0.3417618142345710    Ga11
    0.6547804565107773    0.3732335598877669    0.8349268980917152    Ga12
    0.6531144552811420    0.6229461503571955    0.3425250697557325    Ga13
    0.6563139465094312    0.6274130814359383    0.8462035829087926    Ga14
    0.6554111571217576    0.8705603780671811    0.3408197224662304    Ga15
    0.6556929306031538    0.8798912011879588    0.8429126990914623    Ga16
    0.5389870466058360    0.1251037606627061    0.3923168523044028    Ga17
    0.5403013702724319    0.1263665595618596    0.8934536770096710    Ga18
    0.5423390545766129    0.3742304201049271    0.3993375752195171    Ga19
    0.5407683727565507    0.3797103957364364    0.8938005762748160    Ga20
    0.5404769799364797    0.6289118778404864    0.3950339735149758    Ga21
    0.5416824325413582    0.6232097511693545    0.9017236123688297    Ga22
    0.5426248655102079    0.8751714258323903    0.4023581096092864    Ga23
    0.5409784749756370    0.8761932633195506    0.8964985480182998    Ga24
    0.6856054953268114    0.0037153879744006    0.1032918791168992    Ga25
    0.6864961668754459    0.0025319955605021    0.6027366959445039    Ga26
    0.6850562400759730    0.2511333076845834    0.0983080721327968    Ga27
    0.6854156909708775    0.2572955492867601    0.6032028338133805    Ga28
    0.6833737248379090    0.5002349997564756    0.1014663285163433    Ga29
    0.6848222807285989    0.4953116177153092    0.6045301974903040    Ga30
    0.6879368175014726    0.7475650041504628    0.1078523960579134    Ga31
    0.6863706482646726    0.7493224200410953    0.5996185134020481    Ga32
    0.3466303178735044    0.1233458071589566    0.1591190551528923    Ga33
    0.3427714940982225    0.1276401117715481    0.6538678592025213    Ga34
    0.3444538307129318    0.3724232621677417    0.1604680152240544    Ga35
    0.3447389153469358    0.3770897905949273    0.6540203758725744    Ga36
    0.3452524644985695    0.6220763384213538    0.1594795347683632    Ga37
    0.3442984759547324    0.6275769730318012    0.6567255877959952    Ga38
    0.3436812166435965    0.8716990116523279    0.1598825035953984    Ga39
    0.3419200061366737    0.8747437309976690    0.6577144385092664    Ga40
    0.4300976843622820    0.9997947194796321    0.3458394746355655    Ga41
    0.4263332922219915    0.0005854181081169    0.8446738969635442    Ga42
    0.4279070017259120    0.2513393475298693    0.3420286974225909    Ga43
    0.4278426711897312    0.2506193140256354    0.8398198248416143    Ga44
    0.4283234410090502    0.4994680689613299    0.3431108123265567    Ga45
    0.4281567983768937    0.5012216054420234    0.8435240268417270    Ga46
    0.4293650386701124    0.7471416766577166    0.3456394138054910    Ga47
    0.4276875786315975    0.7534645396922512    0.8379277562555132    Ga48
    0.3133570623751890    0.9944779611593818    0.3983418130227204    Ga49
    0.3150776934658535    0.9957465958009308    0.9051743854988468    Ga50
    0.3120839596863327    0.2500765389847324    0.3905939929138701    Ga51
    0.3118913999629821    0.2466534919064137    0.9006325468883211    Ga52
    0.3143230705462251    0.5011385999942652    0.3998439348025184    Ga53
    0.3145818720303517    0.4925175519955877    0.8908800872354756    Ga54
    0.3160028371070929    0.7511176019724958    0.4031140978088972    Ga55
    0.3127934953372326    0.7499511312813931    0.8993179758660321    Ga56
    0.4585158391221651    0.1240986221312742    0.1050485497577009    Ga57
    0.4583365191239923    0.1267790028828550    0.6098006543553270    Ga58
    0.4587012522700867    0.3768993284739721    0.1074830247421139    Ga59
    0.4589311267997268    0.3765589592963500    0.6027825897517703    Ga60
    0.4569927534918830    0.6262615559011026    0.1037315775401740    Ga61
    0.4580180295545890    0.6295135539187515    0.5993420843136005    Ga62
    0.4601885937690693    0.8702106974853451    0.1008086797951379    Ga63
    0.4581167310252947    0.8770291467402994    0.6011828643001544    Ga64
    0.2733183571049893    0.1230283137566189    0.1234307758726056      O1
    0.7231401334846512    0.1275791799412957    0.6319134244973105      O2
    0.7222819646124388    0.3700778884371859    0.1200519201829746      O3
    0.7241629768911781    0.3784552948868478    0.6317146202878209      O4
    0.2735025333822256    0.6236839361017418    0.1264395587454462      O5
    0.7245824972895663    0.6224066711741882    0.6280977462591116      O6
    0.7230800887413653    0.8742397964754518    0.1355217195207625      O7
    0.7238965682984017    0.8784656941628465    0.6380791785992173      O8
    0.5040365985342012    0.0002042215584903    0.3747463274455097      O9
    0.5012142451637345    0.0054856849091569    0.8723684960487701     O10
    0.5024453497511281    0.2580358595903817    0.3689222240039771     O11
    0.5036310806301096    0.2429302467685086    0.8666721043284089     O12
    0.5020335321346279    0.4996150846198642    0.3739728026092092     O13
    0.5006032662966579    0.5026497256302547    0.8671800132593521     O14
    0.5019228062567498    0.7547417984420359    0.3774984194695922     O15
    0.5062639309951270    0.7540019001429098    0.8591062363841250     O16
    0.5771725712746432    0.1314173140640704    0.2864099509721613     O17
    0.5806749118798157    0.1275871393909860    0.7805825787833708     O18
    0.5818115427299535    0.3780985937989406    0.2835199962535937     O19
    0.5788209572644477    0.3764143933131149    0.7828305882819684     O20
    0.5800500155001131    0.6292277632231520    0.2773042324708220     O21
    0.5775348764943253    0.6236071535086339    0.7832463540746224     O22
    0.5783366160694696    0.8707090719030719    0.2858068700705938     O23
    0.5768138559706428    0.8741134811470047    0.7818399286052756     O24
    0.6489249784165645    0.0045805821097366    0.2129539900869483     O25
    0.6494366420090238    0.0065775291895538    0.7242821303918463     O26
    0.6511179785664336    0.2501018020923788    0.2216616151507959     O27
    0.6497395754961282    0.2514425794789234    0.7167254809639648     O28
    0.6478555238948555    0.4952608011333272    0.2153530447827282     O29
    0.6497949539356678    0.5013910876300759    0.7234974912674726     O30
    0.6514423410563026    0.7524886111731389    0.2203697586910071     O31
    0.6505243528670694    0.7537238777106917    0.7161553187702058     O32
    0.6540940263753106    0.0067281484194258    0.4514097207298138     O33
    0.6550589670442644    0.0018133560053011    0.9483375721584999     O34
    0.6547394885517825    0.2567321723064050    0.4502671961914698     O35
    0.6519660726543566    0.2486193488302378    0.9418887335403620     O36
    0.6535813666361163    0.5052399246270940    0.4430261051763347     O37
    0.6534820507972599    0.4918279583694399    0.9374756730587389     O38
    0.6482088091188258    0.7508364408270315    0.4419207062828525     O39
    0.6539674943182461    0.7560841206791671    0.9495932588241317     O40
    0.5731405701832313    0.1256222534281906    0.0573772887667541     O41
    0.5721488744637757    0.1246539333218444    0.5515243367192580     O42
    0.5755939407449424    0.3767496273860833    0.0549643188994349     O43
    0.5759359317145349    0.3754969351691441    0.5501468278284311     O44
    0.5760006475305125    0.6242037758288138    0.0546708048782259     O45
    0.5731954871374425    0.6166564071053171    0.5521877386547365     O46
    0.5761298784197013    0.8694565494879248    0.0547823466210299     O47
    0.5739604856507132    0.8786081973024590    0.5623407905239517     O48
    0.4996707677023431    0.0011509511041988    0.1308456862992127     O49
    0.4982998378615049    0.9998995213055369    0.6292701720440829     O50
    0.4960674918773114    0.2558314730508746    0.1312842990070862     O51
    0.4962675221283079    0.2537792445659423    0.6239305071976540     O52
    0.4993655578607166    0.5039534882506184    0.1213273342401459     O53
    0.4939784617525917    0.5046832623291994    0.6237134348278994     O54
    0.4984836396730845    0.7467397839197761    0.1203840157025272     O55
    0.4954595159840934    0.7496868103471124    0.6263471029301861     O56
    0.2770841256330802    0.1250417148821546    0.3670481529288697     O57
    0.2738775396908384    0.1182715970179210    0.8795514174242558     O58
    0.2770591778013766    0.3780500933684985    0.3733990257697191     O59
    0.2743880839820517    0.3746559143431554    0.8673147512684325     O60
    0.2742711191504061    0.6238344614180890    0.3652430355975403     O61
    0.2744803319758223    0.6194368386492944    0.8659993105312180     O62
    0.7266816428950107    0.8823697199089268    0.3724475507994139     O63
    0.7266582095216683    0.8752897981689095    0.8733640182031934     O64
    0.3507892366753114    0.0047623625945166    0.2847321080323242     O65
    0.3529832346170383    0.0083966974448274    0.7846263492617886     O66
    0.3526415766153624    0.2539317636454464    0.2797789252580865     O67
    0.3503488399946574    0.2519413067133490    0.7811027606260795     O68
    0.3536220343341466    0.4926623898793727    0.2834213525486643     O69
    0.3521015429173234    0.5022651275570328    0.7773393392781903     O70
    0.3536395361125112    0.7441443710005397    0.2850974364330577     O71
    0.3528930109264363    0.7521860608425348    0.7840522716462307     O72
    0.4224565459791674    0.1217635015683083    0.2184818058327836     O73
    0.4231007871449592    0.1259181636951131    0.7243046284815663     O74
    0.4216098406387252    0.3707166122414576    0.2187777830287759     O75
    0.4170984362183832    0.3759316790639159    0.7174237645349647     O76
    0.4219211176566420    0.6211487388623600    0.2116587317500126     O77
    0.4172172887456281    0.6309566330057510    0.7066605556090017     O78
    0.4243202939089774    0.8675689251017341    0.2166688173039920     O79
    0.4156810771359335    0.8739787524431992    0.7113007831541449     O80
    0.4309688744311008    0.1284937764830294    0.4453630518760061     O81
    0.4288585850613309    0.1300166743503816    0.9512110578769871     O82
    0.4265916465806973    0.3668005963167315    0.4422208824376559     O83
    0.4277721680084325    0.3783012988172517    0.9406457160182533     O84
    0.4239937755111913    0.6277096412377012    0.4474345561214269     O85
    0.4251496743899621    0.6270833545860218    0.9439864123579442     O86
    0.4268630444291448    0.8784355795473340    0.4458570364322195     O87
    0.4263309702246775    0.8703621029564814    0.9418672994319585     O88
    0.3489178492313352    0.9925517174029282    0.0593086742863673     O89
    0.3446747628992770    0.0025554386209166    0.5592747155690895     O90
    0.3469248372209526    0.2473989038932888    0.0564634903518515     O91
    0.3457627198751017    0.2510084491423676    0.5515945555153390     O92
    0.3490593943259497    0.4968855151014532    0.0545426392930554     O93
    0.3472195220953369    0.4957361397831617    0.5572787379198616     O94
    0.3471942187266834    0.7516325388409804    0.0539514969880902     O95
    0.3419950855927959    0.7541670106626600    0.5583142811659841     O96
